
Gurobi 10.0.1 (linux64) logging started Sun Nov 26 16:34:43 2023

Set parameter LogFile to value "ArtificialInstance/ExperimentV2/S3T4K3/BaRo/gurobi91.txt"
Gurobi Optimizer version 10.0.1 build v10.0.1rc0 (linux64)

CPU model: AMD EPYC 7H12 64-Core Processor, instruction set [SSE2|AVX|AVX2]
Thread count: 128 physical cores, 128 logical processors, using up to 32 threads

Academic license 656792 - for non-commercial use only - registered to b.___@student.vu.nl
Optimize a model with 4023 rows, 6081 columns and 21123 nonzeros
Model fingerprint: 0xdbe743db
Variable types: 1 continuous, 6080 integer (6080 binary)
Coefficient statistics:
  Matrix range     [1e+00, 4e+01]
  Objective range  [1e+00, 2e+01]
  Bounds range     [1e+00, 1e+00]
  RHS range        [1e+00, 1e+00]
Presolve time: 0.03s
Presolved: 4023 rows, 6081 columns, 21123 nonzeros
Variable types: 1 continuous, 6080 integer (6080 binary)
Found heuristic solution: objective 371.4666937

Root relaxation: objective 5.382560e+01, 5717 iterations, 0.32 seconds (0.31 work units)

    Nodes    |    Current Node    |     Objective Bounds      |     Work
 Expl Unexpl |  Obj  Depth IntInf | Incumbent    BestBd   Gap | It/Node Time

     0     0   53.82560    0  960  371.46669   53.82560  85.5%     -    0s
H    0     0                     357.1346532   53.82560  84.9%     -    0s
H    0     0                     144.9757374   53.82560  62.9%     -    0s
H    0     0                     114.3469056   59.66718  47.8%     -    0s
     0     0   59.66718    0 1282  114.34691   59.66718  47.8%     -    0s
H    0     0                      88.1206541   59.66718  32.3%     -    0s
     0     0   66.67656    0 1208   88.12065   66.67656  24.3%     -    1s
     0     0   68.72030    0 1238   88.12065   68.72030  22.0%     -    1s
     0     0   68.74405    0 1290   88.12065   68.74405  22.0%     -    1s
     0     0   68.74405    0 1217   88.12065   68.74405  22.0%     -    1s
     0     0   69.76718    0 1157   88.12065   69.76718  20.8%     -    1s
     0     0   69.80358    0 1217   88.12065   69.80358  20.8%     -    1s
     0     0   69.82420    0 1137   88.12065   69.82420  20.8%     -    2s
     0     0   69.82803    0 1128   88.12065   69.82803  20.8%     -    2s
     0     0   70.34213    0 1218   88.12065   70.34213  20.2%     -    2s
     0     0   70.43479    0 1125   88.12065   70.43479  20.1%     -    2s
     0     0   70.44626    0 1107   88.12065   70.44626  20.1%     -    2s
     0     0   70.44626    0 1123   88.12065   70.44626  20.1%     -    2s
H    0     0                      85.4168980   71.03606  16.8%     -    2s
     0     0   71.03606    0 1185   85.41690   71.03606  16.8%     -    2s
     0     0   71.22518    0 1211   85.41690   71.22518  16.6%     -    2s
     0     0   71.23508    0 1195   85.41690   71.23508  16.6%     -    2s
     0     0   71.23508    0 1198   85.41690   71.23508  16.6%     -    2s
     0     0   71.53766    0 1216   85.41690   71.53766  16.2%     -    3s
     0     0   71.55731    0 1226   85.41690   71.55731  16.2%     -    3s
     0     0   71.55731    0 1208   85.41690   71.55731  16.2%     -    3s
     0     0   71.59413    0 1177   85.41690   71.59413  16.2%     -    3s
     0     0   71.59457    0 1230   85.41690   71.59457  16.2%     -    3s
     0     0   71.90676    0 1327   85.41690   71.90676  15.8%     -    3s
     0     0   72.00189    0 1324   85.41690   72.00189  15.7%     -    3s
     0     0   72.00343    0 1279   85.41690   72.00343  15.7%     -    3s
     0     0   72.05192    0 1287   85.41690   72.05192  15.6%     -    4s
     0     0   72.05192    0 1255   85.41690   72.05192  15.6%     -    4s
     0     0   72.05192    0 1233   85.41690   72.05192  15.6%     -    4s
     0     0   72.05192    0 1252   85.41690   72.05192  15.6%     -    4s
     0     0   72.05192    0 1107   85.41690   72.05192  15.6%     -    4s
     0     0   72.05192    0 1197   85.41690   72.05192  15.6%     -    4s
H    0     0                      85.1444709   72.05192  15.4%     -    5s
     0     0   72.05192    0 1152   85.14447   72.05192  15.4%     -    5s
     0     0   72.05192    0 1128   85.14447   72.05192  15.4%     -    5s
     0     2   72.05192    0 1128   85.14447   72.05192  15.4%     -    5s
   638   344   80.68363   15  751   85.14447   73.99928  13.1%   482   11s
  2539   670   78.94042   10  868   85.14447   77.13271  9.41%   383   15s

Cutting planes:
  Gomory: 12
  Zero half: 372
  RLT: 305

Explored 4972 nodes (1738746 simplex iterations) in 17.50 seconds (16.65 work units)
Thread count was 32 (of 128 available processors)

Solution count 7: 85.1445 85.4169 88.1207 ... 371.467

Optimal solution found (tolerance 1.00e-04)
Best objective 8.514447087636e+01, best bound 8.514447087636e+01, gap 0.0000%
